c Standarized MaxSat Instance
c{
c "sha1sum": "892d295ed4bc830be0ca1f4b3e6048b4c5923fcd",
c "nvars": 40,
c "ncls": 996,
c "nhards": 0,
c "nhard_len_stats":
c    { "min": 0, "max": 0, "ave": 0.00,
c      "stddev": 0.00 },
c "nsofts": 996,
c "nsoft_len_stats":
c    { "min": 2, "max": 2, "ave": 2.00,
c      "stddev": 0.00 },
c "nsoft_wts": 10,
c "soft_wt_stats":
c    { "min": 1, "max": 10, "ave": 5.56,
c      "stddev": 2.83 }
c}
c------------------------------------------------------------
c FILE:  brock800_4.b
c
c Graph Generator
c
c By: Mark Brockington (brock@cs.ualberta.ca)
c and Joe Culberson (joe@cs.ualberta.ca)
c
c Graph Size:800, Clique Size: 26
c Seed:3, Edge Density:  0.65000
c Depth 2 Hiding
c
c Clique Elements are:
c 508 494 269 713 293 342 510 680 393 246 
c 395 388 686 7 333 323 111 560 156 134 
c 623 153 160 665 361 16 
c
c Estimated Size of Uncompressed File:   2.0MB
c
p wcnf 40 996 5539
9 1 2 0
9 -1 -2 0
4 1 3 0
4 -1 -3 0
8 1 4 0
8 -1 -4 0
8 1 5 0
8 -1 -5 0
10 1 6 0
10 -1 -6 0
2 1 8 0
2 -1 -8 0
4 1 9 0
4 -1 -9 0
8 1 10 0
8 -1 -10 0
3 1 11 0
3 -1 -11 0
6 1 12 0
6 -1 -12 0
5 1 13 0
5 -1 -13 0
7 1 14 0
7 -1 -14 0
4 1 15 0
4 -1 -15 0
6 1 16 0
6 -1 -16 0
10 1 17 0
10 -1 -17 0
10 1 18 0
10 -1 -18 0
7 1 20 0
7 -1 -20 0
8 1 21 0
8 -1 -21 0
2 1 22 0
2 -1 -22 0
7 1 25 0
7 -1 -25 0
1 1 26 0
1 -1 -26 0
3 1 30 0
3 -1 -30 0
2 1 31 0
2 -1 -31 0
9 1 32 0
9 -1 -32 0
2 1 35 0
2 -1 -35 0
5 1 37 0
5 -1 -37 0
2 1 38 0
2 -1 -38 0
2 1 40 0
2 -1 -40 0
10 2 3 0
10 -2 -3 0
3 2 5 0
3 -2 -5 0
6 2 6 0
6 -2 -6 0
9 2 9 0
9 -2 -9 0
7 2 11 0
7 -2 -11 0
3 2 12 0
3 -2 -12 0
7 2 13 0
7 -2 -13 0
6 2 14 0
6 -2 -14 0
5 2 17 0
5 -2 -17 0
10 2 23 0
10 -2 -23 0
3 2 24 0
3 -2 -24 0
8 2 25 0
8 -2 -25 0
6 2 28 0
6 -2 -28 0
8 2 29 0
8 -2 -29 0
5 2 30 0
5 -2 -30 0
9 2 31 0
9 -2 -31 0
3 2 32 0
3 -2 -32 0
4 2 33 0
4 -2 -33 0
9 2 37 0
9 -2 -37 0
10 2 39 0
10 -2 -39 0
1 3 4 0
1 -3 -4 0
10 3 5 0
10 -3 -5 0
6 3 6 0
6 -3 -6 0
1 3 7 0
1 -3 -7 0
2 3 9 0
2 -3 -9 0
7 3 10 0
7 -3 -10 0
9 3 11 0
9 -3 -11 0
4 3 12 0
4 -3 -12 0
1 3 13 0
1 -3 -13 0
1 3 15 0
1 -3 -15 0
5 3 16 0
5 -3 -16 0
1 3 17 0
1 -3 -17 0
3 3 19 0
3 -3 -19 0
10 3 20 0
10 -3 -20 0
10 3 21 0
10 -3 -21 0
9 3 22 0
9 -3 -22 0
3 3 23 0
3 -3 -23 0
6 3 25 0
6 -3 -25 0
4 3 28 0
4 -3 -28 0
8 3 29 0
8 -3 -29 0
6 3 31 0
6 -3 -31 0
7 3 32 0
7 -3 -32 0
6 3 35 0
6 -3 -35 0
1 3 38 0
1 -3 -38 0
5 4 6 0
5 -4 -6 0
10 4 7 0
10 -4 -7 0
10 4 8 0
10 -4 -8 0
8 4 9 0
8 -4 -9 0
3 4 11 0
3 -4 -11 0
8 4 13 0
8 -4 -13 0
7 4 14 0
7 -4 -14 0
4 4 16 0
4 -4 -16 0
7 4 17 0
7 -4 -17 0
2 4 18 0
2 -4 -18 0
5 4 19 0
5 -4 -19 0
9 4 20 0
9 -4 -20 0
9 4 21 0
9 -4 -21 0
4 4 22 0
4 -4 -22 0
3 4 23 0
3 -4 -23 0
9 4 24 0
9 -4 -24 0
4 4 25 0
4 -4 -25 0
7 4 26 0
7 -4 -26 0
10 4 28 0
10 -4 -28 0
6 4 29 0
6 -4 -29 0
7 4 30 0
7 -4 -30 0
9 4 32 0
9 -4 -32 0
5 4 33 0
5 -4 -33 0
10 4 34 0
10 -4 -34 0
4 4 36 0
4 -4 -36 0
9 4 37 0
9 -4 -37 0
7 4 39 0
7 -4 -39 0
10 5 6 0
10 -5 -6 0
5 5 9 0
5 -5 -9 0
3 5 11 0
3 -5 -11 0
10 5 12 0
10 -5 -12 0
10 5 13 0
10 -5 -13 0
2 5 14 0
2 -5 -14 0
9 5 15 0
9 -5 -15 0
7 5 16 0
7 -5 -16 0
5 5 17 0
5 -5 -17 0
7 5 18 0
7 -5 -18 0
3 5 19 0
3 -5 -19 0
8 5 20 0
8 -5 -20 0
4 5 21 0
4 -5 -21 0
5 5 22 0
5 -5 -22 0
3 5 24 0
3 -5 -24 0
2 5 25 0
2 -5 -25 0
3 5 27 0
3 -5 -27 0
6 5 28 0
6 -5 -28 0
5 5 29 0
5 -5 -29 0
2 5 30 0
2 -5 -30 0
10 5 31 0
10 -5 -31 0
2 5 32 0
2 -5 -32 0
2 5 33 0
2 -5 -33 0
5 5 34 0
5 -5 -34 0
8 5 36 0
8 -5 -36 0
10 5 37 0
10 -5 -37 0
10 5 38 0
10 -5 -38 0
7 5 39 0
7 -5 -39 0
4 6 7 0
4 -6 -7 0
8 6 8 0
8 -6 -8 0
4 6 10 0
4 -6 -10 0
3 6 12 0
3 -6 -12 0
3 6 16 0
3 -6 -16 0
6 6 19 0
6 -6 -19 0
3 6 20 0
3 -6 -20 0
2 6 21 0
2 -6 -21 0
8 6 22 0
8 -6 -22 0
2 6 23 0
2 -6 -23 0
8 6 25 0
8 -6 -25 0
2 6 26 0
2 -6 -26 0
8 6 27 0
8 -6 -27 0
1 6 28 0
1 -6 -28 0
10 6 30 0
10 -6 -30 0
1 6 31 0
1 -6 -31 0
6 6 32 0
6 -6 -32 0
2 6 33 0
2 -6 -33 0
3 6 34 0
3 -6 -34 0
8 6 36 0
8 -6 -36 0
8 6 37 0
8 -6 -37 0
7 6 38 0
7 -6 -38 0
10 6 39 0
10 -6 -39 0
7 6 40 0
7 -6 -40 0
8 7 9 0
8 -7 -9 0
1 7 11 0
1 -7 -11 0
2 7 13 0
2 -7 -13 0
6 7 17 0
6 -7 -17 0
1 7 18 0
1 -7 -18 0
1 7 20 0
1 -7 -20 0
3 7 22 0
3 -7 -22 0
5 7 23 0
5 -7 -23 0
9 7 27 0
9 -7 -27 0
6 7 28 0
6 -7 -28 0
8 7 30 0
8 -7 -30 0
1 7 32 0
1 -7 -32 0
2 7 33 0
2 -7 -33 0
10 7 34 0
10 -7 -34 0
3 7 36 0
3 -7 -36 0
9 7 37 0
9 -7 -37 0
2 7 38 0
2 -7 -38 0
10 7 40 0
10 -7 -40 0
1 8 9 0
1 -8 -9 0
9 8 10 0
9 -8 -10 0
1 8 11 0
1 -8 -11 0
1 8 12 0
1 -8 -12 0
10 8 13 0
10 -8 -13 0
6 8 16 0
6 -8 -16 0
2 8 21 0
2 -8 -21 0
2 8 22 0
2 -8 -22 0
4 8 25 0
4 -8 -25 0
10 8 26 0
10 -8 -26 0
9 8 27 0
9 -8 -27 0
4 8 29 0
4 -8 -29 0
6 8 31 0
6 -8 -31 0
6 8 32 0
6 -8 -32 0
5 8 33 0
5 -8 -33 0
7 8 34 0
7 -8 -34 0
1 8 35 0
1 -8 -35 0
6 8 36 0
6 -8 -36 0
8 8 37 0
8 -8 -37 0
4 8 38 0
4 -8 -38 0
10 8 40 0
10 -8 -40 0
6 9 12 0
6 -9 -12 0
9 9 14 0
9 -9 -14 0
8 9 15 0
8 -9 -15 0
7 9 17 0
7 -9 -17 0
1 9 19 0
1 -9 -19 0
8 9 21 0
8 -9 -21 0
9 9 22 0
9 -9 -22 0
10 9 23 0
10 -9 -23 0
9 9 24 0
9 -9 -24 0
9 9 25 0
9 -9 -25 0
10 9 26 0
10 -9 -26 0
8 9 27 0
8 -9 -27 0
10 9 29 0
10 -9 -29 0
10 9 31 0
10 -9 -31 0
7 9 33 0
7 -9 -33 0
5 9 34 0
5 -9 -34 0
2 9 35 0
2 -9 -35 0
9 9 36 0
9 -9 -36 0
9 9 39 0
9 -9 -39 0
1 9 40 0
1 -9 -40 0
7 10 11 0
7 -10 -11 0
3 10 12 0
3 -10 -12 0
7 10 13 0
7 -10 -13 0
3 10 14 0
3 -10 -14 0
8 10 16 0
8 -10 -16 0
4 10 17 0
4 -10 -17 0
4 10 18 0
4 -10 -18 0
3 10 19 0
3 -10 -19 0
1 10 20 0
1 -10 -20 0
7 10 23 0
7 -10 -23 0
3 10 24 0
3 -10 -24 0
7 10 25 0
7 -10 -25 0
6 10 28 0
6 -10 -28 0
10 10 29 0
10 -10 -29 0
3 10 31 0
3 -10 -31 0
6 10 33 0
6 -10 -33 0
8 10 35 0
8 -10 -35 0
2 10 37 0
2 -10 -37 0
5 10 39 0
5 -10 -39 0
6 10 40 0
6 -10 -40 0
10 11 12 0
10 -11 -12 0
5 11 13 0
5 -11 -13 0
4 11 14 0
4 -11 -14 0
9 11 15 0
9 -11 -15 0
5 11 16 0
5 -11 -16 0
1 11 19 0
1 -11 -19 0
4 11 20 0
4 -11 -20 0
6 11 21 0
6 -11 -21 0
9 11 22 0
9 -11 -22 0
3 11 26 0
3 -11 -26 0
7 11 27 0
7 -11 -27 0
5 11 28 0
5 -11 -28 0
5 11 29 0
5 -11 -29 0
4 11 30 0
4 -11 -30 0
8 11 34 0
8 -11 -34 0
2 11 35 0
2 -11 -35 0
7 11 36 0
7 -11 -36 0
1 11 37 0
1 -11 -37 0
5 11 38 0
5 -11 -38 0
7 12 13 0
7 -12 -13 0
7 12 15 0
7 -12 -15 0
7 12 16 0
7 -12 -16 0
4 12 17 0
4 -12 -17 0
2 12 18 0
2 -12 -18 0
7 12 19 0
7 -12 -19 0
7 12 20 0
7 -12 -20 0
8 12 21 0
8 -12 -21 0
4 12 23 0
4 -12 -23 0
8 12 26 0
8 -12 -26 0
3 12 27 0
3 -12 -27 0
10 12 29 0
10 -12 -29 0
7 12 32 0
7 -12 -32 0
7 12 33 0
7 -12 -33 0
3 12 34 0
3 -12 -34 0
6 12 35 0
6 -12 -35 0
1 12 36 0
1 -12 -36 0
3 12 37 0
3 -12 -37 0
9 12 38 0
9 -12 -38 0
7 12 39 0
7 -12 -39 0
1 13 14 0
1 -13 -14 0
2 13 15 0
2 -13 -15 0
4 13 16 0
4 -13 -16 0
6 13 22 0
6 -13 -22 0
6 13 23 0
6 -13 -23 0
7 13 25 0
7 -13 -25 0
3 13 26 0
3 -13 -26 0
8 13 27 0
8 -13 -27 0
3 13 29 0
3 -13 -29 0
4 13 30 0
4 -13 -30 0
2 13 31 0
2 -13 -31 0
10 13 32 0
10 -13 -32 0
1 13 34 0
1 -13 -34 0
9 13 35 0
9 -13 -35 0
4 13 36 0
4 -13 -36 0
2 13 37 0
2 -13 -37 0
5 13 38 0
5 -13 -38 0
10 14 15 0
10 -14 -15 0
10 14 16 0
10 -14 -16 0
8 14 17 0
8 -14 -17 0
7 14 19 0
7 -14 -19 0
2 14 20 0
2 -14 -20 0
7 14 21 0
7 -14 -21 0
4 14 27 0
4 -14 -27 0
8 14 28 0
8 -14 -28 0
10 14 29 0
10 -14 -29 0
10 14 30 0
10 -14 -30 0
9 14 31 0
9 -14 -31 0
3 14 37 0
3 -14 -37 0
8 14 38 0
8 -14 -38 0
6 14 40 0
6 -14 -40 0
3 15 16 0
3 -15 -16 0
10 15 18 0
10 -15 -18 0
10 15 19 0
10 -15 -19 0
9 15 20 0
9 -15 -20 0
5 15 21 0
5 -15 -21 0
6 15 22 0
6 -15 -22 0
2 15 23 0
2 -15 -23 0
3 15 25 0
3 -15 -25 0
9 15 28 0
9 -15 -28 0
5 15 29 0
5 -15 -29 0
5 15 32 0
5 -15 -32 0
9 15 33 0
9 -15 -33 0
5 15 34 0
5 -15 -34 0
3 15 36 0
3 -15 -36 0
2 15 37 0
2 -15 -37 0
7 15 39 0
7 -15 -39 0
8 15 40 0
8 -15 -40 0
2 16 17 0
2 -16 -17 0
7 16 18 0
7 -16 -18 0
5 16 22 0
5 -16 -22 0
9 16 23 0
9 -16 -23 0
8 16 24 0
8 -16 -24 0
2 16 29 0
2 -16 -29 0
3 16 31 0
3 -16 -31 0
5 16 32 0
5 -16 -32 0
2 16 34 0
2 -16 -34 0
2 16 35 0
2 -16 -35 0
4 16 37 0
4 -16 -37 0
4 16 38 0
4 -16 -38 0
10 16 39 0
10 -16 -39 0
10 17 18 0
10 -17 -18 0
7 17 19 0
7 -17 -19 0
9 17 20 0
9 -17 -20 0
9 17 21 0
9 -17 -21 0
5 17 23 0
5 -17 -23 0
4 17 26 0
4 -17 -26 0
4 17 27 0
4 -17 -27 0
7 17 28 0
7 -17 -28 0
7 17 29 0
7 -17 -29 0
3 17 30 0
3 -17 -30 0
2 17 31 0
2 -17 -31 0
1 17 32 0
1 -17 -32 0
2 17 33 0
2 -17 -33 0
7 17 35 0
7 -17 -35 0
4 17 37 0
4 -17 -37 0
3 17 38 0
3 -17 -38 0
4 17 40 0
4 -17 -40 0
1 18 19 0
1 -18 -19 0
5 18 21 0
5 -18 -21 0
10 18 22 0
10 -18 -22 0
6 18 23 0
6 -18 -23 0
3 18 24 0
3 -18 -24 0
7 18 25 0
7 -18 -25 0
8 18 26 0
8 -18 -26 0
5 18 28 0
5 -18 -28 0
2 18 29 0
2 -18 -29 0
9 18 33 0
9 -18 -33 0
7 18 36 0
7 -18 -36 0
6 18 39 0
6 -18 -39 0
3 18 40 0
3 -18 -40 0
6 19 20 0
6 -19 -20 0
5 19 21 0
5 -19 -21 0
9 19 22 0
9 -19 -22 0
4 19 24 0
4 -19 -24 0
3 19 26 0
3 -19 -26 0
4 19 27 0
4 -19 -27 0
8 19 28 0
8 -19 -28 0
7 19 30 0
7 -19 -30 0
10 19 32 0
10 -19 -32 0
4 19 34 0
4 -19 -34 0
9 19 35 0
9 -19 -35 0
2 19 36 0
2 -19 -36 0
5 19 37 0
5 -19 -37 0
1 20 21 0
1 -20 -21 0
8 20 22 0
8 -20 -22 0
8 20 23 0
8 -20 -23 0
3 20 25 0
3 -20 -25 0
2 20 26 0
2 -20 -26 0
9 20 27 0
9 -20 -27 0
8 20 28 0
8 -20 -28 0
1 20 29 0
1 -20 -29 0
5 20 30 0
5 -20 -30 0
10 20 31 0
10 -20 -31 0
8 20 32 0
8 -20 -32 0
3 20 34 0
3 -20 -34 0
5 20 35 0
5 -20 -35 0
9 20 36 0
9 -20 -36 0
1 20 37 0
1 -20 -37 0
1 20 40 0
1 -20 -40 0
4 21 23 0
4 -21 -23 0
4 21 25 0
4 -21 -25 0
7 21 26 0
7 -21 -26 0
9 21 27 0
9 -21 -27 0
2 21 29 0
2 -21 -29 0
1 21 30 0
1 -21 -30 0
1 21 31 0
1 -21 -31 0
5 21 33 0
5 -21 -33 0
8 21 35 0
8 -21 -35 0
7 21 39 0
7 -21 -39 0
5 22 24 0
5 -22 -24 0
2 22 25 0
2 -22 -25 0
6 22 26 0
6 -22 -26 0
6 22 27 0
6 -22 -27 0
6 22 28 0
6 -22 -28 0
6 22 29 0
6 -22 -29 0
4 22 32 0
4 -22 -32 0
4 22 33 0
4 -22 -33 0
9 22 35 0
9 -22 -35 0
5 22 36 0
5 -22 -36 0
2 22 39 0
2 -22 -39 0
7 22 40 0
7 -22 -40 0
6 23 25 0
6 -23 -25 0
7 23 27 0
7 -23 -27 0
6 23 28 0
6 -23 -28 0
3 23 32 0
3 -23 -32 0
9 23 33 0
9 -23 -33 0
1 23 34 0
1 -23 -34 0
1 23 37 0
1 -23 -37 0
10 23 38 0
10 -23 -38 0
2 24 29 0
2 -24 -29 0
5 24 30 0
5 -24 -30 0
3 24 31 0
3 -24 -31 0
9 24 32 0
9 -24 -32 0
3 24 33 0
3 -24 -33 0
4 24 35 0
4 -24 -35 0
9 24 36 0
9 -24 -36 0
4 24 38 0
4 -24 -38 0
9 24 40 0
9 -24 -40 0
7 25 26 0
7 -25 -26 0
1 25 29 0
1 -25 -29 0
3 25 30 0
3 -25 -30 0
8 25 31 0
8 -25 -31 0
7 25 32 0
7 -25 -32 0
9 25 36 0
9 -25 -36 0
4 25 39 0
4 -25 -39 0
3 25 40 0
3 -25 -40 0
2 26 29 0
2 -26 -29 0
7 26 31 0
7 -26 -31 0
2 26 33 0
2 -26 -33 0
7 26 35 0
7 -26 -35 0
8 26 36 0
8 -26 -36 0
8 26 37 0
8 -26 -37 0
3 26 38 0
3 -26 -38 0
5 26 39 0
5 -26 -39 0
4 27 31 0
4 -27 -31 0
5 27 33 0
5 -27 -33 0
3 27 35 0
3 -27 -35 0
4 27 36 0
4 -27 -36 0
6 27 37 0
6 -27 -37 0
2 27 38 0
2 -27 -38 0
6 27 39 0
6 -27 -39 0
1 28 29 0
1 -28 -29 0
4 28 36 0
4 -28 -36 0
4 28 37 0
4 -28 -37 0
4 28 39 0
4 -28 -39 0
8 28 40 0
8 -28 -40 0
3 29 30 0
3 -29 -30 0
7 29 31 0
7 -29 -31 0
6 29 32 0
6 -29 -32 0
10 29 33 0
10 -29 -33 0
7 29 34 0
7 -29 -34 0
9 29 35 0
9 -29 -35 0
7 29 36 0
7 -29 -36 0
4 29 39 0
4 -29 -39 0
7 29 40 0
7 -29 -40 0
1 30 31 0
1 -30 -31 0
6 30 32 0
6 -30 -32 0
9 30 34 0
9 -30 -34 0
7 30 36 0
7 -30 -36 0
7 30 38 0
7 -30 -38 0
6 30 40 0
6 -30 -40 0
5 31 32 0
5 -31 -32 0
4 31 33 0
4 -31 -33 0
8 31 37 0
8 -31 -37 0
9 31 38 0
9 -31 -38 0
7 31 39 0
7 -31 -39 0
2 31 40 0
2 -31 -40 0
1 32 34 0
1 -32 -34 0
1 32 35 0
1 -32 -35 0
7 32 36 0
7 -32 -36 0
2 32 38 0
2 -32 -38 0
7 32 39 0
7 -32 -39 0
8 32 40 0
8 -32 -40 0
6 33 34 0
6 -33 -34 0
1 33 38 0
1 -33 -38 0
1 34 35 0
1 -34 -35 0
4 34 36 0
4 -34 -36 0
3 34 37 0
3 -34 -37 0
7 34 38 0
7 -34 -38 0
9 34 40 0
9 -34 -40 0
2 35 36 0
2 -35 -36 0
4 35 38 0
4 -35 -38 0
7 35 39 0
7 -35 -39 0
9 36 37 0
9 -36 -37 0
7 36 38 0
7 -36 -38 0
4 36 39 0
4 -36 -39 0
9 36 40 0
9 -36 -40 0
2 37 38 0
2 -37 -38 0
